(set-logic QF_S)
(declare-fun var0 () String)
(assert (str.in.re var0 (re.++ (re.+ (re.* (str.to.re "00"))) (re.++ (re.union (re.union (str.to.re "1") (str.to.re "2")) (re.union (str.to.re "333") (str.to.re "444"))) (re.++ (re.+ (re.+ (str.to.re "5"))) (re.++ (re.+ (re.+ (str.to.re "6"))) (re.++ (re.union (re.* (str.to.re "777")) (re.* (str.to.re "8"))) (re.++ (re.+ (re.* (str.to.re "99"))) (re.++ (re.* (re.union (str.to.re "a") (str.to.re "b"))) (re.++ (re.+ (re.* (str.to.re "c"))) (re.++ (re.union (re.+ (str.to.re "ddd")) (re.+ (str.to.re "eee"))) (re.++ (re.union (re.union (str.to.re "f") (str.to.re "g")) (re.union (str.to.re "hhh") (str.to.re "i"))) (re.++ (re.union (re.+ (str.to.re "jjj")) (re.+ (str.to.re "kkk"))) (re.++ (re.+ (re.* (str.to.re "ll"))) (re.++ (re.* (re.* (str.to.re "m"))) (re.++ (re.union (re.union (str.to.re "n") (str.to.re "ooo")) (re.union (str.to.re "p") (str.to.re "qqq"))) (re.++ (re.* (re.union (str.to.re "rrr") (str.to.re "ss"))) (re.++ (re.* (re.union (str.to.re "tt") (str.to.re "u"))) (re.++ (re.* (re.+ (str.to.re "v"))) (re.++ (re.union (re.union (str.to.re "w") (str.to.re "x")) (re.union (str.to.re "y") (str.to.re "z"))) (re.++ (re.+ (re.* (str.to.re "AAA"))) (re.++ (re.+ (re.union (str.to.re "BB") (str.to.re "C"))) (re.++ (re.union (re.+ (str.to.re "DDD")) (re.+ (str.to.re "EE"))) (re.++ (re.+ (re.* (str.to.re "FFF"))) (re.++ (re.* (re.+ (str.to.re "GG"))) (re.++ (re.union (re.* (str.to.re "HHH")) (re.* (str.to.re "II"))) (re.++ (re.* (re.union (str.to.re "JJ") (str.to.re "KK"))) (re.++ (re.* (re.+ (str.to.re "LLL"))) (re.++ (re.union (re.+ (str.to.re "M")) (re.+ (str.to.re "N"))) (re.++ (re.union (re.union (str.to.re "O") (str.to.re "PP")) (re.union (str.to.re "QQ") (str.to.re "RRR"))) (re.++ (re.union (re.union (str.to.re "S") (str.to.re "TT")) (re.union (str.to.re "U") (str.to.re "VV"))) (re.++ (re.+ (re.* (str.to.re "WWW"))) (re.++ (re.* (re.union (str.to.re "X") (str.to.re "YYY"))) (re.++ (re.union (re.+ (str.to.re "Z")) (re.+ (str.to.re "!!!"))) (re.++ (re.* (re.+ (str.to.re """"))) (re.++ (re.* (re.union (str.to.re "##") (str.to.re "$$"))) (re.++ (re.+ (re.+ (str.to.re "%"))) (re.++ (re.* (re.union (str.to.re "&&") (str.to.re "'''"))) (re.++ (re.+ (re.+ (str.to.re "((("))) (re.++ (re.+ (re.* (str.to.re "))"))) (re.++ (re.union (re.union (str.to.re "***") (str.to.re "+++")) (re.union (str.to.re ",,") (str.to.re "--"))) (re.++ (re.+ (re.* (str.to.re "."))) (re.++ (re.union (re.union (str.to.re "//") (str.to.re ":")) (re.union (str.to.re ";") (str.to.re "<<"))) (re.++ (re.union (re.* (str.to.re "==")) (re.* (str.to.re ">"))) (re.++ (re.+ (re.union (str.to.re "??") (str.to.re "@@@"))) (re.++ (re.union (re.union (str.to.re "[") (str.to.re "\\\\\\")) (re.union (str.to.re "]") (str.to.re "^^^"))) (re.++ (re.union (re.* (str.to.re "__")) (re.* (str.to.re "```"))) (re.++ (re.+ (re.union (str.to.re "{{") (str.to.re "|||"))) (re.++ (re.union (re.+ (str.to.re "}")) (re.+ (str.to.re "~~"))) (re.++ (re.union (re.+ (str.to.re "00")) (re.+ (str.to.re "111"))) (re.++ (re.union (re.union (str.to.re "222") (str.to.re "33")) (re.union (str.to.re "44") (str.to.re "5"))) (re.++ (re.* (re.* (str.to.re "66"))) (re.++ (re.* (re.+ (str.to.re "77"))) (re.++ (re.* (re.+ (str.to.re "88"))) (re.++ (re.+ (re.+ (str.to.re "99"))) (re.++ (re.+ (re.* (str.to.re "aa"))) (re.++ (re.+ (re.union (str.to.re "b") (str.to.re "c"))) (re.++ (re.+ (re.+ (str.to.re "dd"))) (re.++ (re.+ (re.* (str.to.re "e"))) (re.++ (re.+ (re.* (str.to.re "f"))) (re.++ (re.* (re.* (str.to.re "g"))) (re.++ (re.* (re.union (str.to.re "h") (str.to.re "iii"))) (re.++ (re.+ (re.* (str.to.re "jj"))) (re.++ (re.+ (re.union (str.to.re "kkk") (str.to.re "lll"))) (re.++ (re.union (re.* (str.to.re "mm")) (re.* (str.to.re "nnn"))) (re.++ (re.+ (re.+ (str.to.re "ooo"))) (re.++ (re.* (re.union (str.to.re "p") (str.to.re "q"))) (re.++ (re.union (re.union (str.to.re "rr") (str.to.re "s")) (re.union (str.to.re "tt") (str.to.re "u"))) (re.++ (re.+ (re.union (str.to.re "vvv") (str.to.re "ww"))) (re.++ (re.union (re.* (str.to.re "x")) (re.* (str.to.re "yy"))) (re.++ (re.* (re.+ (str.to.re "z"))) (re.++ (re.+ (re.union (str.to.re "AAA") (str.to.re "B"))) (re.++ (re.* (re.+ (str.to.re "CCC"))) (re.++ (re.union (re.* (str.to.re "DD")) (re.* (str.to.re "EE"))) (re.++ (re.union (re.* (str.to.re "F")) (re.* (str.to.re "G"))) (re.++ (re.+ (re.+ (str.to.re "HH"))) (re.++ (re.union (re.* (str.to.re "III")) (re.* (str.to.re "J"))) (re.++ (re.* (re.+ (str.to.re "KK"))) (re.++ (re.+ (re.union (str.to.re "L") (str.to.re "MMM"))) (re.++ (re.* (re.* (str.to.re "NNN"))) (re.++ (re.union (re.union (str.to.re "OO") (str.to.re "P")) (re.union (str.to.re "Q") (str.to.re "R"))) (re.++ (re.* (re.union (str.to.re "S") (str.to.re "T"))) (re.++ (re.union (re.* (str.to.re "U")) (re.* (str.to.re "V"))) (re.++ (re.+ (re.+ (str.to.re "W"))) (re.++ (re.union (re.* (str.to.re "XX")) (re.* (str.to.re "YYY"))) (re.++ (re.+ (re.union (str.to.re "ZZZ") (str.to.re "!!!"))) (re.++ (re.* (re.* (str.to.re """"""))) (re.++ (re.* (re.+ (str.to.re "##"))) (re.++ (re.+ (re.union (str.to.re "$") (str.to.re "%"))) (re.++ (re.union (re.union (str.to.re "&&&") (str.to.re "'")) (re.union (str.to.re "((") (str.to.re ")"))) (re.++ (re.+ (re.* (str.to.re "*"))) (re.++ (re.+ (re.* (str.to.re "+++"))) (re.++ (re.union (re.* (str.to.re ",,")) (re.* (str.to.re "--"))) (re.++ (re.* (re.union (str.to.re "...") (str.to.re "/"))) (re.++ (re.union (re.union (str.to.re ":::") (str.to.re ";;;")) (re.union (str.to.re "<<") (str.to.re "="))) (re.++ (re.+ (re.+ (str.to.re ">"))) (re.++ (re.* (re.* (str.to.re "???"))) (re.++ (re.* (re.* (str.to.re "@"))) (re.++ (re.+ (re.* (str.to.re "[["))) (re.++ (re.* (re.union (str.to.re "\\\\") (str.to.re "]]]"))) (re.++ (re.union (re.* (str.to.re "^")) (re.* (str.to.re "__"))) (re.++ (re.union (re.union (str.to.re "`") (str.to.re "{")) (re.union (str.to.re "|||") (str.to.re "}"))) (re.++ (re.* (re.union (str.to.re "~~~") (str.to.re "0"))) (re.++ (re.+ (re.* (str.to.re "11"))) (re.++ (re.union (re.union (str.to.re "22") (str.to.re "3")) (re.union (str.to.re "44") (str.to.re "55"))) (re.++ (re.+ (re.+ (str.to.re "66"))) (re.++ (re.* (re.union (str.to.re "777") (str.to.re "8"))) (re.++ (re.* (re.* (str.to.re "99"))) (re.++ (re.union (re.+ (str.to.re "aaa")) (re.+ (str.to.re "bbb"))) (re.++ (re.union (re.union (str.to.re "ccc") (str.to.re "d")) (re.union (str.to.re "e") (str.to.re "f"))) (re.++ (re.+ (re.union (str.to.re "g") (str.to.re "hhh"))) (re.++ (re.* (re.union (str.to.re "ii") (str.to.re "jjj"))) (re.++ (re.union (re.+ (str.to.re "kk")) (re.+ (str.to.re "ll"))) (re.++ (re.union (re.union (str.to.re "mmm") (str.to.re "n")) (re.union (str.to.re "o") (str.to.re "ppp"))) (re.++ (re.* (re.+ (str.to.re "q"))) (re.++ (re.* (re.+ (str.to.re "rrr"))) (re.++ (re.* (re.+ (str.to.re "ss"))) (re.++ (re.+ (re.+ (str.to.re "ttt"))) (re.++ (re.* (re.union (str.to.re "u") (str.to.re "vvv"))) (re.++ (re.union (re.union (str.to.re "w") (str.to.re "xx")) (re.union (str.to.re "y") (str.to.re "zz"))) (re.++ (re.+ (re.+ (str.to.re "AA"))) (re.++ (re.union (re.union (str.to.re "BB") (str.to.re "C")) (re.union (str.to.re "D") (str.to.re "EE"))) (re.++ (re.* (re.union (str.to.re "FF") (str.to.re "GG"))) (re.++ (re.+ (re.* (str.to.re "HH"))) (re.++ (re.+ (re.+ (str.to.re "I"))) (re.++ (re.* (re.+ (str.to.re "J"))) (re.++ (re.* (re.union (str.to.re "KKK") (str.to.re "LLL"))) (re.++ (re.+ (re.+ (str.to.re "M"))) (re.++ (re.* (re.* (str.to.re "N"))) (re.++ (re.* (re.union (str.to.re "OOO") (str.to.re "PP"))) (re.++ (re.union (re.+ (str.to.re "QQ")) (re.+ (str.to.re "R"))) (re.++ (re.union (re.+ (str.to.re "SS")) (re.+ (str.to.re "TT"))) (re.++ (re.+ (re.union (str.to.re "UUU") (str.to.re "VVV"))) (re.++ (re.+ (re.union (str.to.re "WW") (str.to.re "XXX"))) (re.++ (re.* (re.* (str.to.re "Y"))) (re.++ (re.+ (re.* (str.to.re "ZZZ"))) (re.++ (re.* (re.* (str.to.re "!!"))) (re.++ (re.union (re.union (str.to.re """""") (str.to.re "##")) (re.union (str.to.re "$$$") (str.to.re "%%%"))) (re.++ (re.+ (re.+ (str.to.re "&&"))) (re.++ (re.union (re.* (str.to.re "'")) (re.* (str.to.re "("))) (re.++ (re.+ (re.* (str.to.re ")))"))) (re.++ (re.union (re.union (str.to.re "***") (str.to.re "++")) (re.union (str.to.re ",") (str.to.re "--"))) (re.++ (re.union (re.+ (str.to.re "...")) (re.+ (str.to.re "/"))) (re.++ (re.* (re.+ (str.to.re ":"))) (re.++ (re.union (re.union (str.to.re ";;") (str.to.re "<")) (re.union (str.to.re "===") (str.to.re ">>"))) (re.++ (re.union (re.+ (str.to.re "???")) (re.+ (str.to.re "@@@"))) (re.++ (re.* (re.+ (str.to.re "["))) (re.++ (re.* (re.+ (str.to.re "\\\\\\"))) (re.++ (re.union (re.+ (str.to.re "]]")) (re.+ (str.to.re "^^^"))) (re.++ (re.* (re.* (str.to.re "_"))) (re.++ (re.+ (re.* (str.to.re "``"))) (re.++ (re.+ (re.+ (str.to.re "{{{"))) (re.++ (re.+ (re.union (str.to.re "|||") (str.to.re "}}}"))) (re.++ (re.+ (re.union (str.to.re "~~") (str.to.re "00"))) (re.++ (re.+ (re.+ (str.to.re "111"))) (re.++ (re.* (re.union (str.to.re "22") (str.to.re "333"))) (re.++ (re.+ (re.* (str.to.re "44"))) (re.++ (re.* (re.* (str.to.re "55"))) (re.++ (re.+ (re.union (str.to.re "666") (str.to.re "777"))) (re.++ (re.+ (re.* (str.to.re "888"))) (re.++ (re.+ (re.* (str.to.re "999"))) (re.++ (re.union (re.+ (str.to.re "aa")) (re.+ (str.to.re "bb"))) (re.++ (re.+ (re.union (str.to.re "ccc") (str.to.re "dd"))) (re.++ (re.* (re.* (str.to.re "eee"))) (re.++ (re.+ (re.+ (str.to.re "f"))) (re.++ (re.+ (re.union (str.to.re "g") (str.to.re "hh"))) (re.++ (re.+ (re.union (str.to.re "iii") (str.to.re "jjj"))) (re.++ (re.union (re.union (str.to.re "kkk") (str.to.re "ll")) (re.union (str.to.re "mm") (str.to.re "nn"))) (re.++ (re.+ (re.+ (str.to.re "ooo"))) (re.++ (re.union (re.union (str.to.re "ppp") (str.to.re "q")) (re.union (str.to.re "rrr") (str.to.re "s"))) (re.++ (re.+ (re.+ (str.to.re "tt"))) (re.++ (re.union (re.* (str.to.re "uu")) (re.* (str.to.re "v"))) (re.++ (re.* (re.union (str.to.re "www") (str.to.re "xx"))) (re.++ (re.* (re.+ (str.to.re "yy"))) (re.++ (re.union (re.union (str.to.re "z") (str.to.re "AAA")) (re.union (str.to.re "BBB") (str.to.re "C"))) (re.++ (re.+ (re.+ (str.to.re "DD"))) (re.++ (re.+ (re.* (str.to.re "EEE"))) (re.++ (re.* (re.+ (str.to.re "F"))) (re.++ (re.union (re.+ (str.to.re "GG")) (re.+ (str.to.re "HHH"))) (re.++ (re.+ (re.union (str.to.re "I") (str.to.re "J"))) (re.++ (re.union (re.union (str.to.re "KKK") (str.to.re "L")) (re.union (str.to.re "MMM") (str.to.re "NN"))) (re.++ (re.+ (re.union (str.to.re "OO") (str.to.re "PP"))) (re.++ (re.union (re.* (str.to.re "QQQ")) (re.* (str.to.re "R"))) (re.++ (re.+ (re.union (str.to.re "S") (str.to.re "T"))) (re.++ (re.union (re.+ (str.to.re "UUU")) (re.+ (str.to.re "VV"))) (re.++ (re.* (re.union (str.to.re "W") (str.to.re "XX"))) (re.++ (re.union (re.* (str.to.re "YYY")) (re.* (str.to.re "ZZZ"))) (re.++ (re.union (re.* (str.to.re "!!!")) (re.* (str.to.re """"""))) (re.++ (re.* (re.union (str.to.re "##") (str.to.re "$$"))) (re.++ (re.union (re.* (str.to.re "%%%")) (re.* (str.to.re "&&&"))) (re.++ (re.union (re.+ (str.to.re "'''")) (re.+ (str.to.re "(("))) (re.* (re.* (str.to.re ")))"))))))))))))))))))))))))))))))))))))))))))))))))))))))))))))))))))))))))))))))))))))))))))))))))))))))))))))))))))))))))))))))))))))))))))))))))))))))))))))))))))))))))))))))))))))))))))))))))))
(check-sat)